sat
(:arith-branch          8
 :arith-conflicts       1
 :arith-cube-calls      2
 :arith-gcd-calls       9
 :arith-lower           23
 :arith-make-feasible   17
 :arith-max-columns     56
 :arith-max-rows        32
 :arith-patches         9
 :arith-patches-success 1
 :arith-upper           16
 :conflicts             1
 :decisions             8
 :final-checks          9
 :max-memory            19.29
 :memory                18.60
 :mk-bool-var           38
 :mk-clause             1
 :num-allocs            295683
 :num-checks            1
 :rlimit-count          5862
 :time                  0.05
 :total-time            0.12)
